9
2147483647 78 22 95 86 19 31 7 50 
78 2147483647 21 19 97 85 34 12 27 
22 21 2147483647 66 40 36 58 73 86 
95 19 66 2147483647 73 75 5 55 65 
86 97 40 73 2147483647 41 17 70 80 
19 85 36 75 41 2147483647 42 66 78 
31 34 58 5 17 42 2147483647 51 97 
7 12 73 55 70 66 51 2147483647 22 
50 27 86 65 80 78 97 22 2147483647 
